Solver command line: []

Read LP format model from file C:\Users\wlhlm\AppData\Local\Temp\tmp5j9iarw3.pyomo.lp
Reading time = 2.64 seconds
objective: 996960 rows, 878399 columns, 2200350 nonzeros
Set parameter MIPGap to value 0.03
Gurobi Optimizer version 12.0.1 build v12.0.1rc0 (win64 - Windows 11.0 (26100.2))

CPU model: Intel(R) Core(TM) Ultra 7 258V, instruction set [SSE2|AVX|AVX2]
Thread count: 8 physical cores, 8 logical processors, using up to 8 threads

Non-default parameters:
MIPGap  0.03

Optimize a model with 996960 rows, 878399 columns and 2200350 nonzeros
Model fingerprint: 0x71ffa5a4
Model has 8783 quadratic constraints
Variable types: 755424 continuous, 122975 integer (105408 binary)
Coefficient statistics:
  Matrix range     [6e-03, 2e+02]
  QMatrix range    [1e+00, 1e+00]
  Objective range  [1e-02, 1e+03]
  Bounds range     [1e+00, 3e+00]
  RHS range        [8e-05, 1e+04]
Presolve removed 788263 rows and 654117 columns
Presolve time: 0.97s
Presolved: 208697 rows, 224282 columns, 650882 nonzeros
Variable types: 143315 continuous, 80967 integer (72184 binary)
Performing another presolve...
Presolve removed 70265 rows and 70267 columns (presolve time = 9s)...
Presolve removed 70265 rows and 70267 columns
Presolve time: 9.45s
Deterministic concurrent LP optimizer: primal and dual simplex
Showing primal log only...


Root simplex log...

Iteration    Objective       Primal Inf.    Dual Inf.      Time
       0    6.7494415e+07   6.247544e+06   4.884945e+13     12s
   44158    5.3697148e+07   8.359323e+03   5.293307e+10     15s
Concurrent spin time: 0.00s

Solved with dual simplex

Root simplex log...

Iteration    Objective       Primal Inf.    Dual Inf.      Time
   61915    4.5144611e+07   0.000000e+00   0.000000e+00     16s

Root relaxation: objective 4.514461e+07, 61915 iterations, 4.32 seconds (6.18 work units)
Total elapsed time = 15.67s (DegenMoves)

    Nodes    |    Current Node    |     Objective Bounds      |     Work
 Expl Unexpl |  Obj  Depth IntInf | Incumbent    BestBd   Gap | It/Node Time

     0     0 4.5145e+07    0  689          - 4.5145e+07      -     -   19s
H    0     0                    4.574863e+07 4.5145e+07  1.32%     -   21s

Explored 1 nodes (70843 simplex iterations) in 21.35 seconds (23.14 work units)
Thread count was 8 (of 8 available processors)

Solution count 1: 4.57486e+07 

Optimal solution found (tolerance 3.00e-02)
Best objective 4.574863063857e+07, best bound 4.514461080233e+07, gap 1.3203%

